c Sudoku solution
p cnf 729 0
136 0
172 0
218 0
237 0
243 0
294 0
325 0
354 0
393 0
468 0
484 0
561 0
586 0
592 0
628 0
578 0
663 0
473 0
675 0
699 0
735 0
766 0
824 0
114 0
123 0
964 0
774 0
847 0
933 0
838 0
513 0
415 0
945 0
555 0
527 0
998 0
896 0
885 0
783 0
982 0
853 0
195 0
265 0
289 0
748 0
158 0
388 0
657 0
497 0
681 0
187 0
141 0
169 0
367 0
862 0
977 0
791 0
879 0
759 0
951 0
717 0
722 0
811 0
221 0
276 0
371 0
252 0
346 0
431 0
456 0
442 0
644 0
549 0
429 0
616 0
632 0
534 0
312 0
339 0
919 0
926 0
